language Essence 1.3

letting c be
        {function(1 --> a, 2 --> c, 3 --> d, 4 --> a, 5 --> a, 6 --> c, 7 --> c, 8 --> b),
         function(1 --> a, 2 --> c, 3 --> d, 4 --> d, 5 --> c, 6 --> c, 7 --> d, 8 --> a),
         function(1 --> b, 2 --> b, 3 --> b, 4 --> c, 5 --> a, 6 --> c, 7 --> c, 8 --> a),
         function(1 --> b, 2 --> b, 3 --> b, 4 --> d, 5 --> a, 6 --> a, 7 --> a, 8 --> c),
         function(1 --> b, 2 --> b, 3 --> b, 4 --> d, 5 --> c, 6 --> c, 7 --> d, 8 --> d),
         function(1 --> c, 2 --> d, 3 --> d, 4 --> a, 5 --> d, 6 --> b, 7 --> d, 8 --> a)}
